

#This script contains the DEM-part of the sucktion excavator


#-------variables---------------------------------------------------------------------------------------------------------------------------------------------------#
#-------Simulation Parameters---------------------------------------------------------------------------------------------------------------------------------------#



	variable dt	 		equal 2e-5					# timestep 				[sec]
	variable t_sim			equal 10 					# time of simulation 			[sec]
	variable t_set			equal 1					# time to initialise the simulation 	[sec]

	variable st_sim		equal ${t_sim}/${dt}				# steps of simulation 			[]
	variable st_set		equal ${t_set}/${dt}				# steps to initialise the simulation 	[]

	variable dump_rate 		equal 0.02/${dt}				# rate of writing dump files 		[]
	variable skin 			equal 4e-3					# contact parameter			[m]
	variable grav			equal 9.81					# gravitation				[m/s]



#-------Particle Properties-----------------------------------------------------------------------------------------------------------------------------------------#

	variable youngmod 		equal 1e7					# E-Modul				[Pa]
	variable poiss 		equal 0.3					# Poisson Ratio				[]
	variable cor 			equal 0.2					# Coefficent of Restitution		[]
	variable ff 			equal 0.5					# Particle Sliding Friction		[]
	variable wallfricW 		equal 0.42					# Particle Wall Friction		[]
	variable frf 			equal 0.4					# Particle Rolling Friction		[]


#####################################################################################################################################################################
#-------Simulation--------------------------------------------------------------------------------------------------------------------------------------------------#
#####################################################################################################################################################################

	atom_style	granular
	atom_modify	map array
	boundary	f f f
	newton		off

	communicate	single vel yes
	units	si

	region		reg 		block -1 3 -0.5 0.5 -1 1.285 units box
	region		regDEL 	block -1 1 -0.5 0.5 -1 1.285 units box
	create_box	2 reg

	neighbor	0.01 bin
	neigh_modify	delay 0


	fix 		m1 all property/global youngsModulus peratomtype 				${youngmod} ${youngmod} 
	fix 		m2 all property/global poissonsRatio peratomtype 				${poiss} ${poiss} 
	fix 		m3 all property/global coefficientRestitution peratomtypepair  2		${cor} ${cor} ${cor} ${cor}  
	fix 		m4 all property/global coefficientFriction peratomtypepair 2 		${ff}  ${wallfricW} ${wallfricW} 0 			
	fix 		m5 all property/global coefficientRollingFriction peratomtypepair 2 		${ff}  ${wallfricW} ${wallfricW} 0
	fix 		m6 all property/global cohesionEnergyDensity peratomtypepair 2 	    	0	0  0     0
	
               

	#New pair style Hertzian  contact model with rolling friction and cohesion (Cohesion between Particle-Particle)	
	pair_style 	gran model hertz tangential history cohesion sjkr rolling_friction epsd2 		
	pair_coeff	* *

	timestep	${dt}
	fix		gravi all gravity ${grav} vector 0.0 0.0 -1.0


	# Defining the walls that can be in contact with the particles; those come from the STL folder
	fix		container all mesh/surface/stress file STL/box.stl type 	2  element_exclusion_list read ex1.txt curvature_tolerant yes  
	fix		excavator all mesh/surface/stress file STL/excavator.stl type 	2  element_exclusion_list read ex2.txt curvature_tolerant yes 
	fix		inface    all mesh/surface/stress file STL/par_insert.stl type  2  element_exclusion_list read ex3.txt curvature_tolerant yes 
	
	# The wall contacts are only allowed at the box walls
	fix		wall all wall/gran model hertz tangential history cohesion off rolling_friction epsd2 mesh n_meshes 2 meshes  container   excavator


	# count time during simulation
	variable t 	equal step*dt

	# Particle grain size distribution and the density of sandy clay
	fix		pts1 all particletemplate/sphere 32452843 atom_type 1 density constant 1600 radius constant 10e-3	
	fix		pts2 all particletemplate/sphere 32452867 atom_type 1 density constant 1600 radius constant 11e-3
	fix		pts3 all particletemplate/sphere 49979687 atom_type 1 density constant 1600 radius constant 12e-3
	fix		pts4 all particletemplate/sphere 67867967 atom_type 1 density constant 1600 radius constant 13e-3


	#32452843, 32452867, 49979687, 49979693, 67867967, 67867979, 86028121, 86028157 
	fix		pdd1 all particledistribution/discrete 15485867  4  pts4 0.1 pts3 0.40 pts2 0.40 pts1 0.10 

	#region for insertion
	group		nve_group region reg
	

	#particle insertion
	fix		ins nve_group insert/stream seed 15485863 distributiontemplate pdd1 maxattempt 100 mass 500 massrate 3000 overlapcheck yes vel constant 0 0 -2.5 insertion_face inface extrude_length 0.25


	#apply nve integration to all particles that are inserted as single particles
	fix		integr nve_group nve/sphere


	
#####################################################################################################################################################################
#-------Computational Properties------------------------------------------------------------------------------------------------------------------------------------#
#####################################################################################################################################################################

	#output settings, include total thermal energy
	fix		ts all check/timestep/gran 1000 0.1 0.1
	compute		rke all erotate/sphere
	thermo_style	custom step atoms ke c_rke f_ts[1] f_ts[2] vol
	thermo		1000
	thermo_modify	lost ignore norm no
	compute_modify	thermo_temp dynamic yes
	#fix		ts_check all check/timestep/gran ${dump_rate}*10 0.001 0.001



#####################################################################################################################################################################
#-------Run the Simulation------------------------------------------------------------------------------------------------------------------------------------------#
#####################################################################################################################################################################

	shell   	mkdir post
	shell		mkdir postProcessing

	

	#dump		dmp all custom ${dump_rate} post/insert*.liggghts id type type x y z ix iy iz vx vy vz fx fy fz omegax omegay omegaz radius mass 
	dump		ddmpvtk 	all custom/vtk ${dump_rate} post/particles_*.vtk id type x y z vx vy vz fx fy fz radius mass

	# run the settling of particles and then begin with the actual simulation with CFD
	run 		${st_set}	

	unfix ins
	undump          ddmpvtk
	#dump		dmp2 all custom ${dump_rate} post/dump*.liggghts id type type x y z ix iy iz vx vy vz fx fy fz omegax omegay omegaz radius mass 
	dump		ddmpvtk2	all custom/vtk ${dump_rate} post/particles_*.vtk id type x y z vx vy vz fx fy fz radius mass
	fix		movezylinder all move/mesh mesh container linear 0.1 0 0 #rotate origin 0. 0. 0 axis 0. 0 1 period 10.04


#################
	fix     	cfd 	all couple/cfd couple_every 10 mpi #50
	fix     	cfd2 	all couple/cfd/force

	run 0 #<------Wichtig, um fix cfd und fix cfd2 zu aktivieren
#################
